c File: flat175_3_0.col
c
c SOURCE: Joseph Culberson (joe@cs.ualberta.ca)
c DESCRIPTION: Quasi-random coloring problem
c              generated with flatness = 0
c                             probability = 0.041
c                             known coloring = 3
c                             random seed = 1027
c              Creation Date:  Wed Feb 24 10:54:59 1999
c Maximum degree = 8 Minimum degree = 0
c COLOR VERIFICATION: Using the permuted order
c under simple greedy yields the specified
c coloring number
c Color = 3 specified partitions = 3
c p edge 175 417
c cnf created by edge2cnf
p cnf 525 1951
-1 -2 0
-1 -3 0
-2 -3 0
1 2 3 0
-4 -5 0
-4 -6 0
-5 -6 0
4 5 6 0
-7 -8 0
-7 -9 0
-8 -9 0
7 8 9 0
-10 -11 0
-10 -12 0
-11 -12 0
10 11 12 0
-13 -14 0
-13 -15 0
-14 -15 0
13 14 15 0
-16 -17 0
-16 -18 0
-17 -18 0
16 17 18 0
-19 -20 0
-19 -21 0
-20 -21 0
19 20 21 0
-22 -23 0
-22 -24 0
-23 -24 0
22 23 24 0
-25 -26 0
-25 -27 0
-26 -27 0
25 26 27 0
-28 -29 0
-28 -30 0
-29 -30 0
28 29 30 0
-31 -32 0
-31 -33 0
-32 -33 0
31 32 33 0
-34 -35 0
-34 -36 0
-35 -36 0
34 35 36 0
-37 -38 0
-37 -39 0
-38 -39 0
37 38 39 0
-40 -41 0
-40 -42 0
-41 -42 0
40 41 42 0
-43 -44 0
-43 -45 0
-44 -45 0
43 44 45 0
-46 -47 0
-46 -48 0
-47 -48 0
46 47 48 0
-49 -50 0
-49 -51 0
-50 -51 0
49 50 51 0
-52 -53 0
-52 -54 0
-53 -54 0
52 53 54 0
-55 -56 0
-55 -57 0
-56 -57 0
55 56 57 0
-58 -59 0
-58 -60 0
-59 -60 0
58 59 60 0
-61 -62 0
-61 -63 0
-62 -63 0
61 62 63 0
-64 -65 0
-64 -66 0
-65 -66 0
64 65 66 0
-67 -68 0
-67 -69 0
-68 -69 0
67 68 69 0
-70 -71 0
-70 -72 0
-71 -72 0
70 71 72 0
-73 -74 0
-73 -75 0
-74 -75 0
73 74 75 0
-76 -77 0
-76 -78 0
-77 -78 0
76 77 78 0
-79 -80 0
-79 -81 0
-80 -81 0
79 80 81 0
-82 -83 0
-82 -84 0
-83 -84 0
82 83 84 0
-85 -86 0
-85 -87 0
-86 -87 0
85 86 87 0
-88 -89 0
-88 -90 0
-89 -90 0
88 89 90 0
-91 -92 0
-91 -93 0
-92 -93 0
91 92 93 0
-94 -95 0
-94 -96 0
-95 -96 0
94 95 96 0
-97 -98 0
-97 -99 0
-98 -99 0
97 98 99 0
-100 -101 0
-100 -102 0
-101 -102 0
100 101 102 0
-103 -104 0
-103 -105 0
-104 -105 0
103 104 105 0
-106 -107 0
-106 -108 0
-107 -108 0
106 107 108 0
-109 -110 0
-109 -111 0
-110 -111 0
109 110 111 0
-112 -113 0
-112 -114 0
-113 -114 0
112 113 114 0
-115 -116 0
-115 -117 0
-116 -117 0
115 116 117 0
-118 -119 0
-118 -120 0
-119 -120 0
118 119 120 0
-121 -122 0
-121 -123 0
-122 -123 0
121 122 123 0
-124 -125 0
-124 -126 0
-125 -126 0
124 125 126 0
-127 -128 0
-127 -129 0
-128 -129 0
127 128 129 0
-130 -131 0
-130 -132 0
-131 -132 0
130 131 132 0
-133 -134 0
-133 -135 0
-134 -135 0
133 134 135 0
-136 -137 0
-136 -138 0
-137 -138 0
136 137 138 0
-139 -140 0
-139 -141 0
-140 -141 0
139 140 141 0
-142 -143 0
-142 -144 0
-143 -144 0
142 143 144 0
-145 -146 0
-145 -147 0
-146 -147 0
145 146 147 0
-148 -149 0
-148 -150 0
-149 -150 0
148 149 150 0
-151 -152 0
-151 -153 0
-152 -153 0
151 152 153 0
-154 -155 0
-154 -156 0
-155 -156 0
154 155 156 0
-157 -158 0
-157 -159 0
-158 -159 0
157 158 159 0
-160 -161 0
-160 -162 0
-161 -162 0
160 161 162 0
-163 -164 0
-163 -165 0
-164 -165 0
163 164 165 0
-166 -167 0
-166 -168 0
-167 -168 0
166 167 168 0
-169 -170 0
-169 -171 0
-170 -171 0
169 170 171 0
-172 -173 0
-172 -174 0
-173 -174 0
172 173 174 0
-175 -176 0
-175 -177 0
-176 -177 0
175 176 177 0
-178 -179 0
-178 -180 0
-179 -180 0
178 179 180 0
-181 -182 0
-181 -183 0
-182 -183 0
181 182 183 0
-184 -185 0
-184 -186 0
-185 -186 0
184 185 186 0
-187 -188 0
-187 -189 0
-188 -189 0
187 188 189 0
-190 -191 0
-190 -192 0
-191 -192 0
190 191 192 0
-193 -194 0
-193 -195 0
-194 -195 0
193 194 195 0
-196 -197 0
-196 -198 0
-197 -198 0
196 197 198 0
-199 -200 0
-199 -201 0
-200 -201 0
199 200 201 0
-202 -203 0
-202 -204 0
-203 -204 0
202 203 204 0
-205 -206 0
-205 -207 0
-206 -207 0
205 206 207 0
-208 -209 0
-208 -210 0
-209 -210 0
208 209 210 0
-211 -212 0
-211 -213 0
-212 -213 0
211 212 213 0
-214 -215 0
-214 -216 0
-215 -216 0
214 215 216 0
-217 -218 0
-217 -219 0
-218 -219 0
217 218 219 0
-220 -221 0
-220 -222 0
-221 -222 0
220 221 222 0
-223 -224 0
-223 -225 0
-224 -225 0
223 224 225 0
-226 -227 0
-226 -228 0
-227 -228 0
226 227 228 0
-229 -230 0
-229 -231 0
-230 -231 0
229 230 231 0
-232 -233 0
-232 -234 0
-233 -234 0
232 233 234 0
-235 -236 0
-235 -237 0
-236 -237 0
235 236 237 0
-238 -239 0
-238 -240 0
-239 -240 0
238 239 240 0
-241 -242 0
-241 -243 0
-242 -243 0
241 242 243 0
-244 -245 0
-244 -246 0
-245 -246 0
244 245 246 0
-247 -248 0
-247 -249 0
-248 -249 0
247 248 249 0
-250 -251 0
-250 -252 0
-251 -252 0
250 251 252 0
-253 -254 0
-253 -255 0
-254 -255 0
253 254 255 0
-256 -257 0
-256 -258 0
-257 -258 0
256 257 258 0
-259 -260 0
-259 -261 0
-260 -261 0
259 260 261 0
-262 -263 0
-262 -264 0
-263 -264 0
262 263 264 0
-265 -266 0
-265 -267 0
-266 -267 0
265 266 267 0
-268 -269 0
-268 -270 0
-269 -270 0
268 269 270 0
-271 -272 0
-271 -273 0
-272 -273 0
271 272 273 0
-274 -275 0
-274 -276 0
-275 -276 0
274 275 276 0
-277 -278 0
-277 -279 0
-278 -279 0
277 278 279 0
-280 -281 0
-280 -282 0
-281 -282 0
280 281 282 0
-283 -284 0
-283 -285 0
-284 -285 0
283 284 285 0
-286 -287 0
-286 -288 0
-287 -288 0
286 287 288 0
-289 -290 0
-289 -291 0
-290 -291 0
289 290 291 0
-292 -293 0
-292 -294 0
-293 -294 0
292 293 294 0
-295 -296 0
-295 -297 0
-296 -297 0
295 296 297 0
-298 -299 0
-298 -300 0
-299 -300 0
298 299 300 0
-301 -302 0
-301 -303 0
-302 -303 0
301 302 303 0
-304 -305 0
-304 -306 0
-305 -306 0
304 305 306 0
-307 -308 0
-307 -309 0
-308 -309 0
307 308 309 0
-310 -311 0
-310 -312 0
-311 -312 0
310 311 312 0
-313 -314 0
-313 -315 0
-314 -315 0
313 314 315 0
-316 -317 0
-316 -318 0
-317 -318 0
316 317 318 0
-319 -320 0
-319 -321 0
-320 -321 0
319 320 321 0
-322 -323 0
-322 -324 0
-323 -324 0
322 323 324 0
-325 -326 0
-325 -327 0
-326 -327 0
325 326 327 0
-328 -329 0
-328 -330 0
-329 -330 0
328 329 330 0
-331 -332 0
-331 -333 0
-332 -333 0
331 332 333 0
-334 -335 0
-334 -336 0
-335 -336 0
334 335 336 0
-337 -338 0
-337 -339 0
-338 -339 0
337 338 339 0
-340 -341 0
-340 -342 0
-341 -342 0
340 341 342 0
-343 -344 0
-343 -345 0
-344 -345 0
343 344 345 0
-346 -347 0
-346 -348 0
-347 -348 0
346 347 348 0
-349 -350 0
-349 -351 0
-350 -351 0
349 350 351 0
-352 -353 0
-352 -354 0
-353 -354 0
352 353 354 0
-355 -356 0
-355 -357 0
-356 -357 0
355 356 357 0
-358 -359 0
-358 -360 0
-359 -360 0
358 359 360 0
-361 -362 0
-361 -363 0
-362 -363 0
361 362 363 0
-364 -365 0
-364 -366 0
-365 -366 0
364 365 366 0
-367 -368 0
-367 -369 0
-368 -369 0
367 368 369 0
-370 -371 0
-370 -372 0
-371 -372 0
370 371 372 0
-373 -374 0
-373 -375 0
-374 -375 0
373 374 375 0
-376 -377 0
-376 -378 0
-377 -378 0
376 377 378 0
-379 -380 0
-379 -381 0
-380 -381 0
379 380 381 0
-382 -383 0
-382 -384 0
-383 -384 0
382 383 384 0
-385 -386 0
-385 -387 0
-386 -387 0
385 386 387 0
-388 -389 0
-388 -390 0
-389 -390 0
388 389 390 0
-391 -392 0
-391 -393 0
-392 -393 0
391 392 393 0
-394 -395 0
-394 -396 0
-395 -396 0
394 395 396 0
-397 -398 0
-397 -399 0
-398 -399 0
397 398 399 0
-400 -401 0
-400 -402 0
-401 -402 0
400 401 402 0
-403 -404 0
-403 -405 0
-404 -405 0
403 404 405 0
-406 -407 0
-406 -408 0
-407 -408 0
406 407 408 0
-409 -410 0
-409 -411 0
-410 -411 0
409 410 411 0
-412 -413 0
-412 -414 0
-413 -414 0
412 413 414 0
-415 -416 0
-415 -417 0
-416 -417 0
415 416 417 0
-418 -419 0
-418 -420 0
-419 -420 0
418 419 420 0
-421 -422 0
-421 -423 0
-422 -423 0
421 422 423 0
-424 -425 0
-424 -426 0
-425 -426 0
424 425 426 0
-427 -428 0
-427 -429 0
-428 -429 0
427 428 429 0
-430 -431 0
-430 -432 0
-431 -432 0
430 431 432 0
-433 -434 0
-433 -435 0
-434 -435 0
433 434 435 0
-436 -437 0
-436 -438 0
-437 -438 0
436 437 438 0
-439 -440 0
-439 -441 0
-440 -441 0
439 440 441 0
-442 -443 0
-442 -444 0
-443 -444 0
442 443 444 0
-445 -446 0
-445 -447 0
-446 -447 0
445 446 447 0
-448 -449 0
-448 -450 0
-449 -450 0
448 449 450 0
-451 -452 0
-451 -453 0
-452 -453 0
451 452 453 0
-454 -455 0
-454 -456 0
-455 -456 0
454 455 456 0
-457 -458 0
-457 -459 0
-458 -459 0
457 458 459 0
-460 -461 0
-460 -462 0
-461 -462 0
460 461 462 0
-463 -464 0
-463 -465 0
-464 -465 0
463 464 465 0
-466 -467 0
-466 -468 0
-467 -468 0
466 467 468 0
-469 -470 0
-469 -471 0
-470 -471 0
469 470 471 0
-472 -473 0
-472 -474 0
-473 -474 0
472 473 474 0
-475 -476 0
-475 -477 0
-476 -477 0
475 476 477 0
-478 -479 0
-478 -480 0
-479 -480 0
478 479 480 0
-481 -482 0
-481 -483 0
-482 -483 0
481 482 483 0
-484 -485 0
-484 -486 0
-485 -486 0
484 485 486 0
-487 -488 0
-487 -489 0
-488 -489 0
487 488 489 0
-490 -491 0
-490 -492 0
-491 -492 0
490 491 492 0
-493 -494 0
-493 -495 0
-494 -495 0
493 494 495 0
-496 -497 0
-496 -498 0
-497 -498 0
496 497 498 0
-499 -500 0
-499 -501 0
-500 -501 0
499 500 501 0
-502 -503 0
-502 -504 0
-503 -504 0
502 503 504 0
-505 -506 0
-505 -507 0
-506 -507 0
505 506 507 0
-508 -509 0
-508 -510 0
-509 -510 0
508 509 510 0
-511 -512 0
-511 -513 0
-512 -513 0
511 512 513 0
-514 -515 0
-514 -516 0
-515 -516 0
514 515 516 0
-517 -518 0
-517 -519 0
-518 -519 0
517 518 519 0
-520 -521 0
-520 -522 0
-521 -522 0
520 521 522 0
-523 -524 0
-523 -525 0
-524 -525 0
523 524 525 0
-28 -1 0
-29 -2 0
-30 -3 0
-142 -1 0
-143 -2 0
-144 -3 0
-289 -1 0
-290 -2 0
-291 -3 0
-292 -1 0
-293 -2 0
-294 -3 0
-508 -1 0
-509 -2 0
-510 -3 0
-37 -4 0
-38 -5 0
-39 -6 0
-232 -4 0
-233 -5 0
-234 -6 0
-280 -4 0
-281 -5 0
-282 -6 0
-172 -7 0
-173 -8 0
-174 -9 0
-382 -7 0
-383 -8 0
-384 -9 0
-52 -10 0
-53 -11 0
-54 -12 0
-73 -10 0
-74 -11 0
-75 -12 0
-109 -10 0
-110 -11 0
-111 -12 0
-211 -10 0
-212 -11 0
-213 -12 0
-358 -10 0
-359 -11 0
-360 -12 0
-43 -13 0
-44 -14 0
-45 -15 0
-124 -13 0
-125 -14 0
-126 -15 0
-196 -13 0
-197 -14 0
-198 -15 0
-214 -13 0
-215 -14 0
-216 -15 0
-256 -13 0
-257 -14 0
-258 -15 0
-304 -13 0
-305 -14 0
-306 -15 0
-319 -13 0
-320 -14 0
-321 -15 0
-484 -13 0
-485 -14 0
-486 -15 0
-19 -16 0
-20 -17 0
-21 -18 0
-301 -16 0
-302 -17 0
-303 -18 0
-385 -16 0
-386 -17 0
-387 -18 0
-409 -16 0
-410 -17 0
-411 -18 0
-478 -16 0
-479 -17 0
-480 -18 0
-22 -19 0
-23 -20 0
-24 -21 0
-70 -19 0
-71 -20 0
-72 -21 0
-154 -19 0
-155 -20 0
-156 -21 0
-244 -19 0
-245 -20 0
-246 -21 0
-262 -19 0
-263 -20 0
-264 -21 0
-502 -19 0
-503 -20 0
-504 -21 0
-103 -22 0
-104 -23 0
-105 -24 0
-265 -22 0
-266 -23 0
-267 -24 0
-277 -22 0
-278 -23 0
-279 -24 0
-367 -22 0
-368 -23 0
-369 -24 0
-517 -22 0
-518 -23 0
-519 -24 0
-67 -25 0
-68 -26 0
-69 -27 0
-157 -25 0
-158 -26 0
-159 -27 0
-217 -25 0
-218 -26 0
-219 -27 0
-511 -25 0
-512 -26 0
-513 -27 0
-247 -28 0
-248 -29 0
-249 -30 0
-259 -28 0
-260 -29 0
-261 -30 0
-457 -28 0
-458 -29 0
-459 -30 0
-472 -28 0
-473 -29 0
-474 -30 0
-475 -28 0
-476 -29 0
-477 -30 0
-112 -31 0
-113 -32 0
-114 -33 0
-187 -31 0
-188 -32 0
-189 -33 0
-403 -31 0
-404 -32 0
-405 -33 0
-478 -31 0
-479 -32 0
-480 -33 0
-505 -31 0
-506 -32 0
-507 -33 0
-43 -34 0
-44 -35 0
-45 -36 0
-229 -37 0
-230 -38 0
-231 -39 0
-277 -37 0
-278 -38 0
-279 -39 0
-343 -37 0
-344 -38 0
-345 -39 0
-202 -40 0
-203 -41 0
-204 -42 0
-256 -40 0
-257 -41 0
-258 -42 0
-316 -40 0
-317 -41 0
-318 -42 0
-319 -40 0
-320 -41 0
-321 -42 0
-148 -43 0
-149 -44 0
-150 -45 0
-199 -43 0
-200 -44 0
-201 -45 0
-508 -43 0
-509 -44 0
-510 -45 0
-169 -46 0
-170 -47 0
-171 -48 0
-199 -46 0
-200 -47 0
-201 -48 0
-376 -46 0
-377 -47 0
-378 -48 0
-457 -46 0
-458 -47 0
-459 -48 0
-466 -46 0
-467 -47 0
-468 -48 0
-76 -49 0
-77 -50 0
-78 -51 0
-361 -49 0
-362 -50 0
-363 -51 0
-403 -49 0
-404 -50 0
-405 -51 0
-496 -49 0
-497 -50 0
-498 -51 0
-106 -52 0
-107 -53 0
-108 -54 0
-157 -52 0
-158 -53 0
-159 -54 0
-175 -52 0
-176 -53 0
-177 -54 0
-190 -52 0
-191 -53 0
-192 -54 0
-274 -52 0
-275 -53 0
-276 -54 0
-424 -52 0
-425 -53 0
-426 -54 0
-79 -55 0
-80 -56 0
-81 -57 0
-181 -55 0
-182 -56 0
-183 -57 0
-325 -55 0
-326 -56 0
-327 -57 0
-511 -55 0
-512 -56 0
-513 -57 0
-91 -58 0
-92 -59 0
-93 -60 0
-151 -58 0
-152 -59 0
-153 -60 0
-154 -58 0
-155 -59 0
-156 -60 0
-205 -58 0
-206 -59 0
-207 -60 0
-466 -58 0
-467 -59 0
-468 -60 0
-517 -58 0
-518 -59 0
-519 -60 0
-106 -61 0
-107 -62 0
-108 -63 0
-235 -61 0
-236 -62 0
-237 -63 0
-295 -61 0
-296 -62 0
-297 -63 0
-385 -61 0
-386 -62 0
-387 -63 0
-433 -61 0
-434 -62 0
-435 -63 0
-259 -64 0
-260 -65 0
-261 -66 0
-295 -64 0
-296 -65 0
-297 -66 0
-370 -64 0
-371 -65 0
-372 -66 0
-169 -67 0
-170 -68 0
-171 -69 0
-271 -67 0
-272 -68 0
-273 -69 0
-424 -67 0
-425 -68 0
-426 -69 0
-520 -67 0
-521 -68 0
-522 -69 0
-103 -70 0
-104 -71 0
-105 -72 0
-355 -70 0
-356 -71 0
-357 -72 0
-379 -70 0
-380 -71 0
-381 -72 0
-466 -70 0
-467 -71 0
-468 -72 0
-190 -73 0
-191 -74 0
-192 -75 0
-241 -73 0
-242 -74 0
-243 -75 0
-253 -73 0
-254 -74 0
-255 -75 0
-271 -73 0
-272 -74 0
-273 -75 0
-499 -73 0
-500 -74 0
-501 -75 0
-91 -76 0
-92 -77 0
-93 -78 0
-184 -76 0
-185 -77 0
-186 -78 0
-241 -76 0
-242 -77 0
-243 -78 0
-511 -76 0
-512 -77 0
-513 -78 0
-259 -79 0
-260 -80 0
-261 -81 0
-427 -79 0
-428 -80 0
-429 -81 0
-226 -82 0
-227 -83 0
-228 -84 0
-295 -82 0
-296 -83 0
-297 -84 0
-334 -82 0
-335 -83 0
-336 -84 0
-337 -82 0
-338 -83 0
-339 -84 0
-346 -82 0
-347 -83 0
-348 -84 0
-439 -82 0
-440 -83 0
-441 -84 0
-496 -82 0
-497 -83 0
-498 -84 0
-196 -85 0
-197 -86 0
-198 -87 0
-295 -85 0
-296 -86 0
-297 -87 0
-322 -85 0
-323 -86 0
-324 -87 0
-358 -85 0
-359 -86 0
-360 -87 0
-472 -85 0
-473 -86 0
-474 -87 0
-169 -88 0
-170 -89 0
-171 -90 0
-211 -88 0
-212 -89 0
-213 -90 0
-355 -88 0
-356 -89 0
-357 -90 0
-397 -88 0
-398 -89 0
-399 -90 0
-421 -88 0
-422 -89 0
-423 -90 0
-145 -91 0
-146 -92 0
-147 -93 0
-229 -91 0
-230 -92 0
-231 -93 0
-115 -94 0
-116 -95 0
-117 -96 0
-145 -94 0
-146 -95 0
-147 -96 0
-388 -94 0
-389 -95 0
-390 -96 0
-397 -94 0
-398 -95 0
-399 -96 0
-451 -94 0
-452 -95 0
-453 -96 0
-460 -94 0
-461 -95 0
-462 -96 0
-262 -97 0
-263 -98 0
-264 -99 0
-316 -97 0
-317 -98 0
-318 -99 0
-442 -97 0
-443 -98 0
-444 -99 0
-118 -103 0
-119 -104 0
-120 -105 0
-403 -103 0
-404 -104 0
-405 -105 0
-427 -103 0
-428 -104 0
-429 -105 0
-199 -106 0
-200 -107 0
-201 -108 0
-400 -106 0
-401 -107 0
-402 -108 0
-454 -106 0
-455 -107 0
-456 -108 0
-298 -109 0
-299 -110 0
-300 -111 0
-361 -109 0
-362 -110 0
-363 -111 0
-400 -109 0
-401 -110 0
-402 -111 0
-223 -112 0
-224 -113 0
-225 -114 0
-274 -112 0
-275 -113 0
-276 -114 0
-145 -115 0
-146 -116 0
-147 -117 0
-151 -115 0
-152 -116 0
-153 -117 0
-256 -115 0
-257 -116 0
-258 -117 0
-298 -115 0
-299 -116 0
-300 -117 0
-481 -115 0
-482 -116 0
-483 -117 0
-415 -118 0
-416 -119 0
-417 -120 0
-454 -118 0
-455 -119 0
-456 -120 0
-190 -121 0
-191 -122 0
-192 -123 0
-160 -124 0
-161 -125 0
-162 -126 0
-262 -124 0
-263 -125 0
-264 -126 0
-310 -124 0
-311 -125 0
-312 -126 0
-343 -124 0
-344 -125 0
-345 -126 0
-442 -124 0
-443 -125 0
-444 -126 0
-487 -124 0
-488 -125 0
-489 -126 0
-502 -124 0
-503 -125 0
-504 -126 0
-154 -127 0
-155 -128 0
-156 -129 0
-340 -127 0
-341 -128 0
-342 -129 0
-397 -127 0
-398 -128 0
-399 -129 0
-391 -130 0
-392 -131 0
-393 -132 0
-181 -133 0
-182 -134 0
-183 -135 0
-334 -133 0
-335 -134 0
-336 -135 0
-466 -133 0
-467 -134 0
-468 -135 0
-151 -136 0
-152 -137 0
-153 -138 0
-262 -136 0
-263 -137 0
-264 -138 0
-385 -136 0
-386 -137 0
-387 -138 0
-208 -139 0
-209 -140 0
-210 -141 0
-379 -139 0
-380 -140 0
-381 -141 0
-418 -139 0
-419 -140 0
-420 -141 0
-469 -139 0
-470 -140 0
-471 -141 0
-160 -142 0
-161 -143 0
-162 -144 0
-301 -142 0
-302 -143 0
-303 -144 0
-220 -145 0
-221 -146 0
-222 -147 0
-319 -145 0
-320 -146 0
-321 -147 0
-481 -148 0
-482 -149 0
-483 -150 0
-154 -151 0
-155 -152 0
-156 -153 0
-202 -151 0
-203 -152 0
-204 -153 0
-250 -151 0
-251 -152 0
-252 -153 0
-265 -151 0
-266 -152 0
-267 -153 0
-469 -151 0
-470 -152 0
-471 -153 0
-421 -154 0
-422 -155 0
-423 -156 0
-475 -154 0
-476 -155 0
-477 -156 0
-505 -154 0
-506 -155 0
-507 -156 0
-382 -157 0
-383 -158 0
-384 -159 0
-412 -157 0
-413 -158 0
-414 -159 0
-517 -157 0
-518 -158 0
-519 -159 0
-214 -160 0
-215 -161 0
-216 -162 0
-274 -160 0
-275 -161 0
-276 -162 0
-358 -160 0
-359 -161 0
-360 -162 0
-403 -160 0
-404 -161 0
-405 -162 0
-310 -163 0
-311 -164 0
-312 -165 0
-409 -163 0
-410 -164 0
-411 -165 0
-523 -163 0
-524 -164 0
-525 -165 0
-262 -166 0
-263 -167 0
-264 -168 0
-421 -166 0
-422 -167 0
-423 -168 0
-466 -166 0
-467 -167 0
-468 -168 0
-517 -166 0
-518 -167 0
-519 -168 0
-328 -169 0
-329 -170 0
-330 -171 0
-358 -169 0
-359 -170 0
-360 -171 0
-361 -169 0
-362 -170 0
-363 -171 0
-391 -169 0
-392 -170 0
-393 -171 0
-472 -169 0
-473 -170 0
-474 -171 0
-187 -172 0
-188 -173 0
-189 -174 0
-202 -172 0
-203 -173 0
-204 -174 0
-226 -172 0
-227 -173 0
-228 -174 0
-271 -172 0
-272 -173 0
-273 -174 0
-316 -172 0
-317 -173 0
-318 -174 0
-319 -172 0
-320 -173 0
-321 -174 0
-508 -172 0
-509 -173 0
-510 -174 0
-286 -175 0
-287 -176 0
-288 -177 0
-337 -175 0
-338 -176 0
-339 -177 0
-508 -175 0
-509 -176 0
-510 -177 0
-199 -178 0
-200 -179 0
-201 -180 0
-211 -178 0
-212 -179 0
-213 -180 0
-265 -178 0
-266 -179 0
-267 -180 0
-364 -178 0
-365 -179 0
-366 -180 0
-268 -184 0
-269 -185 0
-270 -186 0
-310 -184 0
-311 -185 0
-312 -186 0
-448 -184 0
-449 -185 0
-450 -186 0
-496 -187 0
-497 -188 0
-498 -189 0
-502 -190 0
-503 -191 0
-504 -192 0
-514 -190 0
-515 -191 0
-516 -192 0
-367 -193 0
-368 -194 0
-369 -195 0
-445 -193 0
-446 -194 0
-447 -195 0
-286 -196 0
-287 -197 0
-288 -198 0
-298 -196 0
-299 -197 0
-300 -198 0
-394 -196 0
-395 -197 0
-396 -198 0
-442 -196 0
-443 -197 0
-444 -198 0
-220 -199 0
-221 -200 0
-222 -201 0
-223 -199 0
-224 -200 0
-225 -201 0
-259 -199 0
-260 -200 0
-261 -201 0
-331 -202 0
-332 -203 0
-333 -204 0
-373 -202 0
-374 -203 0
-375 -204 0
-379 -202 0
-380 -203 0
-381 -204 0
-214 -205 0
-215 -206 0
-216 -207 0
-274 -205 0
-275 -206 0
-276 -207 0
-343 -205 0
-344 -206 0
-345 -207 0
-364 -205 0
-365 -206 0
-366 -207 0
-238 -208 0
-239 -209 0
-240 -210 0
-250 -208 0
-251 -209 0
-252 -210 0
-415 -208 0
-416 -209 0
-417 -210 0
-502 -208 0
-503 -209 0
-504 -210 0
-235 -211 0
-236 -212 0
-237 -213 0
-244 -211 0
-245 -212 0
-246 -213 0
-331 -211 0
-332 -212 0
-333 -213 0
-490 -211 0
-491 -212 0
-492 -213 0
-319 -217 0
-320 -218 0
-321 -219 0
-442 -217 0
-443 -218 0
-444 -219 0
-487 -217 0
-488 -218 0
-489 -219 0
-415 -220 0
-416 -221 0
-417 -222 0
-484 -220 0
-485 -221 0
-486 -222 0
-487 -220 0
-488 -221 0
-489 -222 0
-265 -223 0
-266 -224 0
-267 -225 0
-376 -223 0
-377 -224 0
-378 -225 0
-400 -223 0
-401 -224 0
-402 -225 0
-469 -223 0
-470 -224 0
-471 -225 0
-289 -226 0
-290 -227 0
-291 -228 0
-307 -226 0
-308 -227 0
-309 -228 0
-313 -226 0
-314 -227 0
-315 -228 0
-457 -226 0
-458 -227 0
-459 -228 0
-277 -229 0
-278 -230 0
-279 -231 0
-286 -229 0
-287 -230 0
-288 -231 0
-490 -229 0
-491 -230 0
-492 -231 0
-304 -232 0
-305 -233 0
-306 -234 0
-382 -232 0
-383 -233 0
-384 -234 0
-406 -232 0
-407 -233 0
-408 -234 0
-274 -235 0
-275 -236 0
-276 -237 0
-364 -235 0
-365 -236 0
-366 -237 0
-505 -235 0
-506 -236 0
-507 -237 0
-334 -238 0
-335 -239 0
-336 -240 0
-340 -238 0
-341 -239 0
-342 -240 0
-475 -238 0
-476 -239 0
-477 -240 0
-451 -241 0
-452 -242 0
-453 -243 0
-328 -244 0
-329 -245 0
-330 -246 0
-352 -244 0
-353 -245 0
-354 -246 0
-358 -244 0
-359 -245 0
-360 -246 0
-280 -247 0
-281 -248 0
-282 -249 0
-307 -247 0
-308 -248 0
-309 -249 0
-406 -247 0
-407 -248 0
-408 -249 0
-469 -247 0
-470 -248 0
-471 -249 0
-508 -247 0
-509 -248 0
-510 -249 0
-433 -250 0
-434 -251 0
-435 -252 0
-289 -253 0
-290 -254 0
-291 -255 0
-310 -253 0
-311 -254 0
-312 -255 0
-409 -253 0
-410 -254 0
-411 -255 0
-415 -253 0
-416 -254 0
-417 -255 0
-502 -253 0
-503 -254 0
-504 -255 0
-289 -256 0
-290 -257 0
-291 -258 0
-319 -256 0
-320 -257 0
-321 -258 0
-382 -256 0
-383 -257 0
-384 -258 0
-289 -259 0
-290 -260 0
-291 -261 0
-496 -259 0
-497 -260 0
-498 -261 0
-274 -262 0
-275 -263 0
-276 -264 0
-286 -262 0
-287 -263 0
-288 -264 0
-370 -262 0
-371 -263 0
-372 -264 0
-313 -265 0
-314 -266 0
-315 -267 0
-424 -265 0
-425 -266 0
-426 -267 0
-511 -265 0
-512 -266 0
-513 -267 0
-424 -268 0
-425 -269 0
-426 -270 0
-499 -268 0
-500 -269 0
-501 -270 0
-487 -274 0
-488 -275 0
-489 -276 0
-313 -277 0
-314 -278 0
-315 -279 0
-361 -277 0
-362 -278 0
-363 -279 0
-481 -277 0
-482 -278 0
-483 -279 0
-298 -280 0
-299 -281 0
-300 -282 0
-304 -280 0
-305 -281 0
-306 -282 0
-421 -280 0
-422 -281 0
-423 -282 0
-382 -283 0
-383 -284 0
-384 -285 0
-430 -283 0
-431 -284 0
-432 -285 0
-436 -283 0
-437 -284 0
-438 -285 0
-517 -283 0
-518 -284 0
-519 -285 0
-370 -286 0
-371 -287 0
-372 -288 0
-484 -286 0
-485 -287 0
-486 -288 0
-487 -286 0
-488 -287 0
-489 -288 0
-463 -289 0
-464 -290 0
-465 -291 0
-319 -295 0
-320 -296 0
-321 -297 0
-364 -295 0
-365 -296 0
-366 -297 0
-397 -295 0
-398 -296 0
-399 -297 0
-433 -295 0
-434 -296 0
-435 -297 0
-382 -298 0
-383 -299 0
-384 -300 0
-499 -298 0
-500 -299 0
-501 -300 0
-331 -301 0
-332 -302 0
-333 -303 0
-466 -301 0
-467 -302 0
-468 -303 0
-493 -301 0
-494 -302 0
-495 -303 0
-376 -304 0
-377 -305 0
-378 -306 0
-406 -304 0
-407 -305 0
-408 -306 0
-454 -304 0
-455 -305 0
-456 -306 0
-370 -310 0
-371 -311 0
-372 -312 0
-433 -310 0
-434 -311 0
-435 -312 0
-385 -313 0
-386 -314 0
-387 -315 0
-421 -313 0
-422 -314 0
-423 -315 0
-397 -316 0
-398 -317 0
-399 -318 0
-358 -322 0
-359 -323 0
-360 -324 0
-448 -322 0
-449 -323 0
-450 -324 0
-514 -322 0
-515 -323 0
-516 -324 0
-346 -325 0
-347 -326 0
-348 -327 0
-379 -325 0
-380 -326 0
-381 -327 0
-490 -325 0
-491 -326 0
-492 -327 0
-373 -331 0
-374 -332 0
-375 -333 0
-370 -334 0
-371 -335 0
-372 -336 0
-379 -334 0
-380 -335 0
-381 -336 0
-445 -334 0
-446 -335 0
-447 -336 0
-376 -337 0
-377 -338 0
-378 -339 0
-445 -337 0
-446 -338 0
-447 -339 0
-448 -337 0
-449 -338 0
-450 -339 0
-376 -340 0
-377 -341 0
-378 -342 0
-421 -340 0
-422 -341 0
-423 -342 0
-442 -340 0
-443 -341 0
-444 -342 0
-508 -340 0
-509 -341 0
-510 -342 0
-388 -346 0
-389 -347 0
-390 -348 0
-436 -346 0
-437 -347 0
-438 -348 0
-448 -349 0
-449 -350 0
-450 -351 0
-469 -349 0
-470 -350 0
-471 -351 0
-382 -352 0
-383 -353 0
-384 -354 0
-376 -358 0
-377 -359 0
-378 -360 0
-436 -358 0
-437 -359 0
-438 -360 0
-520 -361 0
-521 -362 0
-522 -363 0
-430 -364 0
-431 -365 0
-432 -366 0
-454 -364 0
-455 -365 0
-456 -366 0
-463 -364 0
-464 -365 0
-465 -366 0
-493 -367 0
-494 -368 0
-495 -369 0
-427 -370 0
-428 -371 0
-429 -372 0
-388 -373 0
-389 -374 0
-390 -375 0
-475 -373 0
-476 -374 0
-477 -375 0
-475 -376 0
-476 -377 0
-477 -378 0
-439 -382 0
-440 -383 0
-441 -384 0
-406 -385 0
-407 -386 0
-408 -387 0
-490 -388 0
-491 -389 0
-492 -390 0
-502 -388 0
-503 -389 0
-504 -390 0
-496 -394 0
-497 -395 0
-498 -396 0
-403 -397 0
-404 -398 0
-405 -399 0
-478 -397 0
-479 -398 0
-480 -399 0
-496 -400 0
-497 -401 0
-498 -402 0
-493 -403 0
-494 -404 0
-495 -405 0
-508 -406 0
-509 -407 0
-510 -408 0
-418 -412 0
-419 -413 0
-420 -414 0
-451 -418 0
-452 -419 0
-453 -420 0
-439 -421 0
-440 -422 0
-441 -423 0
-457 -424 0
-458 -425 0
-459 -426 0
-511 -424 0
-512 -425 0
-513 -426 0
-499 -427 0
-500 -428 0
-501 -429 0
-454 -436 0
-455 -437 0
-456 -438 0
-460 -436 0
-461 -437 0
-462 -438 0
-505 -436 0
-506 -437 0
-507 -438 0
-514 -442 0
-515 -443 0
-516 -444 0
-463 -445 0
-464 -446 0
-465 -447 0
-475 -445 0
-476 -446 0
-477 -447 0
-508 -448 0
-509 -449 0
-510 -450 0
-505 -451 0
-506 -452 0
-507 -453 0
-469 -454 0
-470 -455 0
-471 -456 0
-523 -457 0
-524 -458 0
-525 -459 0
-481 -460 0
-482 -461 0
-483 -462 0
-484 -460 0
-485 -461 0
-486 -462 0
-514 -460 0
-515 -461 0
-516 -462 0
-499 -463 0
-500 -464 0
-501 -465 0
-493 -466 0
-494 -467 0
-495 -468 0
-496 -469 0
-497 -470 0
-498 -471 0
-505 -478 0
-506 -479 0
-507 -480 0
-517 -478 0
-518 -479 0
-519 -480 0
-490 -484 0
-491 -485 0
-492 -486 0
-505 -484 0
-506 -485 0
-507 -486 0
-493 -487 0
-494 -488 0
-495 -489 0
-517 -502 0
-518 -503 0
-519 -504 0
